Route #1: 394 386 788 377 792 138 804 820 586 122
Route #2: 854 927 516 625 729 51 796 866
Route #3: 673 254 703 449 655 144 800 281
Route #4: 819 634 632 53 82 173 610 247 110
Route #5: 650 129 114 658 987 112 471 613 105 14
Route #6: 802 621 202 108 286 876 941 894 297 267
Route #7: 141 743 559 257 201 706 541 970 877
Route #8: 89 319 70 116 611 787 916 537 320
Route #9: 74 142 540 713 283 712 278 407
Route #10: 775 239 384 253 704 459 790 751
Route #11: 893 630 607 182 834 77 569 710 445 626
Route #12: 527 697 299 455 461 721 898 844 753 478
Route #13: 932 532 517 651 762 718 411 770 26 687
Cost: 256157
